Route #1: 28 12 34 11 5 36 56 49 60 52 25 20 23 16 37 61 6 15 42 43 45 59 7 54 46
Route #2: 63 3 40 24 21 64 26 58
Route #3: 18 32 41 39 31 8
Route #4: 55 35 50 53 9 27 44
Route #5: 13 51 19 4 33 48 30 62 14 38 29 57 17 2 1 47
Route #6: 22
Route #7: 10
Route #8: 
Route #9: 
cost 1130.9132428238756
